(set-option :produce-models true); benchmark generated from python API
(set-info :status unknown)
(declare-fun l_1_0_9 () Real)
(declare-fun l_1_0_10 () Real)
(declare-fun _a_0_ () Real)
(declare-fun l_1_0_6 () Real)
(declare-fun l_1_0_5 () Real)
(declare-fun l_1_0_4 () Real)
(declare-fun l_1_0_2 () Real)
(declare-fun l_1_0_12 () Real)
(declare-fun _a_1_ () Real)
(declare-fun l_1_0_11 () Real)
(declare-fun _a_2_ () Real)
(declare-fun l_1_0_14 () Real)
(declare-fun l_1_0_13 () Real)
(declare-fun _a_3_ () Real)
(declare-fun l_1_0_8 () Real)
(declare-fun l_1_0_7 () Real)
(declare-fun l_1_0_3 () Real)
(declare-fun l_1_0_1 () Real)
(declare-fun l_1_1_9 () Real)
(declare-fun l_1_1_8 () Real)
(declare-fun l_1_1_7 () Real)
(declare-fun l_1_1_6 () Real)
(declare-fun l_1_1_5 () Real)
(declare-fun l_1_1_4 () Real)
(declare-fun l_1_1_3 () Real)
(declare-fun l_1_1_2 () Real)
(declare-fun l_1_1_15 () Real)
(declare-fun l_1_1_14 () Real)
(declare-fun l_1_1_13 () Real)
(declare-fun l_1_1_12 () Real)
(declare-fun l_1_1_11 () Real)
(declare-fun l_1_1_10 () Real)
(declare-fun l_1_1_1 () Real)
(declare-fun l_1_1_17 () Real)
(declare-fun l_1_1_16 () Real)
(declare-fun l_1_1_20 () Real)
(declare-fun l_1_1_19 () Real)
(declare-fun l_1_1_18 () Real)
(declare-fun l_1_2_6 () Real)
(declare-fun l_1_2_5 () Real)
(declare-fun l_1_2_3 () Real)
(declare-fun l_1_2_2 () Real)
(declare-fun l_1_2_18 () Real)
(declare-fun l_1_2_15 () Real)
(declare-fun l_1_2_13 () Real)
(declare-fun l_1_2_10 () Real)
(declare-fun l_1_2_9 () Real)
(declare-fun l_1_2_8 () Real)
(declare-fun l_1_2_4 () Real)
(declare-fun l_1_2_12 () Real)
(declare-fun l_1_2_16 () Real)
(declare-fun l_1_2_20 () Real)
(declare-fun l_1_2_19 () Real)
(declare-fun l_1_2_17 () Real)
(declare-fun l_1_2_7 () Real)
(declare-fun l_1_2_14 () Real)
(declare-fun l_1_2_11 () Real)
(declare-fun l_1_2_1 () Real)
(assert
 (= (- _a_0_ (* (* 2.0 l_1_0_10) l_1_0_9)) 0.0))
(assert
 (let ((?x1200 (* 6.0 l_1_0_6)))
 (let ((?x1080 (* 6.0 l_1_0_5)))
 (let ((?x1077 (* 6.0 l_1_0_4)))
 (let ((?x1429 (* 96.0 l_1_0_2)))
 (let ((?x1081 (- (- (+ (- _a_1_ (* (* 2.0 l_1_0_12) l_1_0_9)) ?x1429) ?x1077) ?x1080)))
 (= (- ?x1081 ?x1200) 0.0)))))))
(assert
 (let ((?x1357 (* 16.0 l_1_0_2)))
 (let ((?x1358 (- (- (- _a_2_ (* l_1_0_10 l_1_0_10)) (* l_1_0_11 l_1_0_11)) ?x1357)))
 (= (+ (+ (+ ?x1358 l_1_0_4) l_1_0_5) l_1_0_6) 0.0))))
(assert
 (let ((?x1257 (* 52.0 l_1_0_2)))
 (let ((?x409 (* l_1_0_14 l_1_0_14)))
 (let ((?x1255 (- (- (- _a_3_ (* l_1_0_12 l_1_0_12)) (* l_1_0_13 l_1_0_13)) ?x409)))
 (= (+ (+ (+ (- ?x1255 ?x1257) l_1_0_4) l_1_0_5) l_1_0_6) 0.0)))))
(assert
 (let ((?x1164 (* l_1_0_9 l_1_0_9)))
 (let ((?x1181 (* 8.0 l_1_0_6)))
 (let ((?x1178 (* 8.0 l_1_0_5)))
 (let ((?x1214 (* 8.0 l_1_0_4)))
 (let ((?x1180 (+ (+ (- (- (- l_1_0_1) (* 64.0 l_1_0_2)) l_1_0_3) ?x1214) ?x1178)))
 (= (- (- (- (- (+ ?x1180 ?x1181) l_1_0_7) l_1_0_8) ?x1164) 1.0) 0.0)))))))
(assert
 (= (- l_1_0_2) 0.0))
(assert
 (= (* (- 2.0) l_1_0_2) 0.0))
(assert
 (= (* 12.0 l_1_0_2) 0.0))
(assert
 (= (- l_1_0_2) 0.0))
(assert
 (= (* 12.0 l_1_0_2) 0.0))
(assert
 (let ((?x1068 (- (* (* (- 2.0) l_1_0_10) l_1_0_12) (* (* 2.0 l_1_0_11) l_1_0_13))))
 (= ?x1068 0.0)))
(assert
 (>= l_1_0_1 0.0))
(assert
 (>= l_1_0_2 0.0))
(assert
 (>= l_1_0_3 0.0))
(assert
 (>= l_1_0_4 0.0))
(assert
 (>= l_1_0_5 0.0))
(assert
 (>= l_1_0_6 0.0))
(assert
 (>= l_1_0_7 0.0))
(assert
 (>= l_1_0_8 0.0))
(assert
 (>= l_1_0_9 0.0))
(assert
 (>= l_1_0_11 0.0))
(assert
 (>= l_1_0_14 0.0))
(assert
 (let ((?x1030 (* 5.0 l_1_1_8)))
 (let ((?x1026 (* 5.0 l_1_1_6)))
 (let ((?x1020 (* 5.0 l_1_1_4)))
 (let ((?x1018 (* 25.0 l_1_1_3)))
 (let ((?x1015 (* 5.0 l_1_1_2)))
 (let ((?x1012 (* l_1_1_15 l_1_1_15)))
 (let ((?x1006 (- (+ (- (- l_1_1_1) (* 1.0 l_1_1_10)) (* 5.0 l_1_1_11)) l_1_1_12)))
 (let ((?x1019 (- (- (- (- (+ ?x1006 (* 1.0 l_1_1_13)) l_1_1_14) ?x1012) ?x1015) ?x1018)))
 (let ((?x1031 (- (- (+ (+ (- ?x1019 ?x1020) (* 1.0 l_1_1_5)) ?x1026) l_1_1_7) ?x1030)))
 (= (+ (+ ?x1031 (* 1.0 l_1_1_9)) 1.0) 0.0)))))))))))
(assert
 (let ((?x22 (* 10.0 l_1_1_3)))
 (let ((?x503 (* l_1_1_17 l_1_1_17)))
 (let ((?x497 (* l_1_1_16 l_1_1_16)))
 (let ((?x470 (* _a_2_ l_1_1_9)))
 (let ((?x895 (- (- (- (* (- _a_2_) l_1_1_13) (* _a_2_ l_1_1_5)) ?x470) (* l_1_1_10 (- (* _a_0_ _a_0_) (* 2.0 _a_2_))))))
 (let ((?x898 (- (- (- ?x895 (* l_1_1_11 (- (* 5.0 _a_2_) 1.0))) ?x497) ?x503)))
 (let ((?x583 (- (- (- (- ?x898 l_1_1_2) ?x22) l_1_1_4) (* l_1_1_6 (- (* 5.0 _a_2_) 1.0)))))
 (= (- (- ?x583 l_1_1_8) 1.0) 0.0)))))))))
(assert
 (let ((?x531 (* _a_0_ l_1_1_9)))
 (let ((?x585 (* _a_0_ l_1_1_5)))
 (let ((?x581 (* _a_0_ l_1_1_13)))
 (let ((?x578 (- (* (* 2.0 _a_0_) l_1_1_10) (* (* 5.0 _a_0_) l_1_1_11))))
 (let ((?x532 (- (- (- (- ?x578 ?x581) ?x585) (* (* 5.0 _a_0_) l_1_1_6)) ?x531)))
 (= (+ (- ?x532 (* (* 2.0 l_1_1_15) l_1_1_16)) 4.0) 0.0)))))))
(assert
 (let ((?x357 (* 46.0 l_1_1_3)))
 (let ((?x354 (* l_1_1_20 l_1_1_20)))
 (let ((?x351 (* l_1_1_19 l_1_1_19)))
 (let ((?x423 (* l_1_1_18 l_1_1_18)))
 (let ((?x478 (* _a_3_ l_1_1_9)))
 (let ((?x413 (- (- (- (* (- _a_3_) l_1_1_13) (* _a_3_ l_1_1_5)) ?x478) (* l_1_1_10 (- (* _a_1_ _a_1_) (* 2.0 _a_3_))))))
 (let ((?x421 (- ?x413 (* l_1_1_11 (- (+ (* (- 6.0) _a_1_) (* 5.0 _a_3_)) 1.0)))))
 (let ((?x360 (- (- (- (- (- (- ?x421 ?x423) ?x351) l_1_1_2) ?x354) ?x357) l_1_1_4)))
 (let ((?x363 (- ?x360 (* l_1_1_6 (- (+ (* (- 6.0) _a_1_) (* 5.0 _a_3_)) 1.0)))))
 (= (- (- ?x363 l_1_1_8) 1.0) 0.0)))))))))))
(assert
 (let ((?x157 (* 6.0 l_1_1_4)))
 (let ((?x154 (* 60.0 l_1_1_3)))
 (let ((?x151 (* 6.0 l_1_1_2)))
 (let ((?x186 (* _a_1_ l_1_1_9)))
 (let ((?x184 (* _a_1_ l_1_1_5)))
 (let ((?x188 (- (- (- (* (* 2.0 _a_1_) l_1_1_10) (* _a_1_ l_1_1_13)) ?x184) ?x186)))
 (let ((?x150 (- (- ?x188 (* l_1_1_11 (+ (* 5.0 _a_1_) 6.0))) (* (* 2.0 l_1_1_15) l_1_1_18))))
 (let ((?x161 (- (+ (+ (+ ?x150 ?x151) ?x154) ?x157) (* l_1_1_6 (+ (* 5.0 _a_1_) 6.0)))))
 (= (+ (+ ?x161 (* 6.0 l_1_1_8)) 4.0) 0.0))))))))))
(assert
 (let ((?x374 (- (- (* (- _a_2_) l_1_1_11) (* _a_2_ l_1_1_6)) (* (* l_1_1_10 _a_2_) _a_2_))))
 (= (- ?x374 l_1_1_3) 0.0)))
(assert
 (let ((?x1275 (* 2.0 l_1_1_3)))
 (let ((?x1274 (- (* (* (* (- 2.0) _a_2_) _a_3_) l_1_1_10) (* l_1_1_11 (+ _a_2_ _a_3_)))))
 (= (- (- ?x1274 ?x1275) (* l_1_1_6 (+ _a_2_ _a_3_))) 0.0))))
(assert
 (let ((?x382 (* 12.0 l_1_1_3)))
 (let ((?x1238 (- (* (* (* (- 2.0) _a_1_) _a_2_) l_1_1_10) (* l_1_1_11 (- _a_1_ (* 6.0 _a_2_))))))
 (= (- (+ ?x1238 ?x382) (* l_1_1_6 (- _a_1_ (* 6.0 _a_2_)))) 0.0))))
(assert
 (let ((?x1330 (- (- (* (- _a_3_) l_1_1_11) (* _a_3_ l_1_1_6)) (* (* l_1_1_10 _a_3_) _a_3_))))
 (= (- ?x1330 l_1_1_3) 0.0)))
(assert
 (let ((?x382 (* 12.0 l_1_1_3)))
 (let ((?x1218 (- (* (* (* (- 2.0) _a_1_) _a_3_) l_1_1_10) (* l_1_1_11 (- _a_1_ (* 6.0 _a_3_))))))
 (= (- (+ ?x1218 ?x382) (* l_1_1_6 (- _a_1_ (* 6.0 _a_3_)))) 0.0))))
(assert
 (let ((?x454 (* _a_0_ l_1_1_6)))
 (let ((?x539 (* _a_0_ l_1_1_11)))
 (= (- (- (* (* (* (- 2.0) _a_0_) _a_2_) l_1_1_10) ?x539) ?x454) 0.0))))
(assert
 (let ((?x454 (* _a_0_ l_1_1_6)))
 (let ((?x539 (* _a_0_ l_1_1_11)))
 (= (- (- (* (* (* (- 2.0) _a_0_) _a_3_) l_1_1_10) ?x539) ?x454) 0.0))))
(assert
 (let ((?x137 (+ (* (* (* (- 2.0) _a_0_) _a_1_) l_1_1_10) (* (* 6.0 _a_0_) l_1_1_11))))
 (let ((?x179 (- (+ ?x137 (* (* 6.0 _a_0_) l_1_1_6)) (* (* 2.0 l_1_1_16) l_1_1_18))))
 (= (- ?x179 (* (* 2.0 l_1_1_17) l_1_1_19)) 0.0))))
(assert
 (>= l_1_1_1 0.0))
(assert
 (>= l_1_1_2 0.0))
(assert
 (>= l_1_1_3 0.0))
(assert
 (>= l_1_1_4 0.0))
(assert
 (>= l_1_1_5 0.0))
(assert
 (>= l_1_1_6 0.0))
(assert
 (>= l_1_1_7 0.0))
(assert
 (>= l_1_1_8 0.0))
(assert
 (>= l_1_1_9 0.0))
(assert
 (>= l_1_1_10 0.0))
(assert
 (>= l_1_1_11 0.0))
(assert
 (>= l_1_1_12 0.0))
(assert
 (>= l_1_1_13 0.0))
(assert
 (>= l_1_1_14 0.0))
(assert
 (>= l_1_1_15 0.0))
(assert
 (>= l_1_1_17 0.0))
(assert
 (>= l_1_1_20 0.0))
(assert
 (let ((?x1054 (* 6.0 l_1_2_5)))
 (let ((?x1055 (* 6.0 l_1_2_3)))
 (let ((?x1050 (* 60.0 l_1_2_2)))
 (let ((?x888 (* 6.0 l_1_2_10)))
 (let ((?x886 (* (/ 9.0 10.0) _a_1_)))
 (let ((?x397 (* _a_1_ l_1_2_8)))
 (let ((?x684 (* _a_1_ l_1_2_4)))
 (let ((?x884 (+ (- (- (- (* (/ 1.0 10.0) _a_0_) (* _a_1_ l_1_2_12)) ?x684) ?x397) (* (* 2.0 _a_1_) l_1_2_9))))
 (let ((?x378 (- (- (+ ?x884 ?x886) ?x888) (* l_1_2_13 (- (* (- 5.0) _a_1_) 6.0)))))
 (let ((?x1231 (- (- (+ (- ?x378 (* (* 2.0 l_1_2_15) l_1_2_18)) ?x1050) ?x1055) ?x1054)))
 (= (- ?x1231 (* l_1_2_6 (- (* (- 5.0) _a_1_) 6.0))) 0.0))))))))))))
(assert
 (let ((?x1405 (* (/ 9.0 10.0) _a_0_)))
 (let ((?x1408 (* _a_0_ l_1_2_8)))
 (let ((?x522 (* _a_0_ l_1_2_4)))
 (let ((?x520 (- (+ (* (- _a_0_) l_1_2_12) (* (* 5.0 _a_0_) l_1_2_13)) ?x522)))
 (let ((?x1411 (+ (- (+ ?x520 (* (* 5.0 _a_0_) l_1_2_6)) ?x1408) (* (* 2.0 _a_0_) l_1_2_9))))
 (= (- (+ ?x1411 ?x1405) (* (* 2.0 l_1_2_15) l_1_2_16)) 0.0)))))))
(assert
 (let ((?x167 (* l_1_2_20 l_1_2_20)))
 (let ((?x171 (* 46.0 l_1_2_2)))
 (let ((?x217 (* l_1_2_19 l_1_2_19)))
 (let ((?x621 (* l_1_2_18 l_1_2_18)))
 (let ((?x691 (* (/ 81.0 100.0) _a_3_)))
 (let ((?x690 (* _a_3_ l_1_2_8)))
 (let ((?x875 (* _a_3_ l_1_2_4)))
 (let ((?x692 (+ (- (- (- (* (/ 1.0 100.0) _a_2_) (* _a_3_ l_1_2_12)) ?x875) ?x690) ?x691)))
 (let ((?x617 (- (+ ?x692 l_1_2_10) (* l_1_2_13 (+ (- (* 6.0 _a_1_) (* 5.0 _a_3_)) 1.0)))))
 (let ((?x989 (+ (+ (- (- (- (- ?x617 ?x621) ?x217) ?x171) ?x167) l_1_2_3) l_1_2_5)))
 (let ((?x339 (- ?x989 (* l_1_2_6 (+ (- (* 6.0 _a_1_) (* 5.0 _a_3_)) 1.0)))))
 (= (- ?x339 (* l_1_2_9 (- (* _a_1_ _a_1_) (* 2.0 _a_3_)))) 0.0)))))))))))))
(assert
 (let ((?x618 (* (/ 9.0 50.0) _a_2_)))
 (let ((?x313 (- (* (* (* (- 2.0) _a_0_) _a_1_) l_1_2_9) (* (* 6.0 _a_0_) l_1_2_13))))
 (let ((?x1347 (- (+ (- ?x313 (* (* 6.0 _a_0_) l_1_2_6)) ?x618) (* (* 2.0 l_1_2_16) l_1_2_18))))
 (= (- ?x1347 (* (* 2.0 l_1_2_17) l_1_2_19)) 0.0)))))
(assert
 (let ((?x1248 (* 10.0 l_1_2_2)))
 (let ((?x1251 (* l_1_2_17 l_1_2_17)))
 (let ((?x194 (* l_1_2_16 l_1_2_16)))
 (let ((?x1119 (* (/ 81.0 100.0) _a_2_)))
 (let ((?x1117 (* _a_2_ l_1_2_8)))
 (let ((?x518 (+ (- (- (* (- _a_2_) l_1_2_12) (* _a_2_ l_1_2_4)) ?x1117) ?x1119)))
 (let ((?x193 (- (- (+ ?x518 l_1_2_10) (* l_1_2_13 (- 1.0 (* 5.0 _a_2_)))) ?x194)))
 (let ((?x109 (- (+ (+ (- (- ?x193 ?x1251) ?x1248) l_1_2_3) l_1_2_5) (* l_1_2_6 (- 1.0 (* 5.0 _a_2_))))))
 (= (- ?x109 (* l_1_2_9 (- (* _a_0_ _a_0_) (* 2.0 _a_2_)))) 0.0))))))))))
(assert
 (let ((?x702 (* 5.0 l_1_2_6)))
 (let ((?x758 (* 5.0 l_1_2_5)))
 (let ((?x792 (* 5.0 l_1_2_3)))
 (let ((?x790 (* 25.0 l_1_2_2)))
 (let ((?x788 (* l_1_2_15 l_1_2_15)))
 (let ((?x834 (* 5.0 l_1_2_13)))
 (let ((?x833 (+ (- (+ (- l_1_2_1) (* 5.0 l_1_2_10)) l_1_2_11) (* 1.0 l_1_2_12))))
 (let ((?x757 (+ (+ (- (- (- (- ?x833 ?x834) l_1_2_14) ?x788) ?x790) ?x792) (* 1.0 l_1_2_4))))
 (let ((?x562 (- (+ (- (- (+ ?x757 ?x758) ?x702) l_1_2_7) (* 1.0 l_1_2_8)) (* 1.0 l_1_2_9))))
 (= (- ?x562 1.0) 0.0)))))))))))
(assert
 (let ((?x77 (- (- (+ (* _a_2_ l_1_2_13) (* _a_2_ l_1_2_6)) l_1_2_2) (* (* l_1_2_9 _a_2_) _a_2_))))
 (= ?x77 0.0)))
(assert
 (let ((?x1449 (* 2.0 l_1_2_2)))
 (let ((?x1448 (- (* (* (* (- 2.0) _a_2_) _a_3_) l_1_2_9) (* l_1_2_13 (- (- _a_2_) _a_3_)))))
 (= (- (- ?x1448 ?x1449) (* l_1_2_6 (- (- _a_2_) _a_3_))) 0.0))))
(assert
 (let ((?x1497 (* 12.0 l_1_2_2)))
 (let ((?x1496 (- (* (* (* (- 2.0) _a_1_) _a_2_) l_1_2_9) (* l_1_2_13 (+ (- _a_1_) (* 6.0 _a_2_))))))
 (= (- (+ ?x1496 ?x1497) (* l_1_2_6 (+ (- _a_1_) (* 6.0 _a_2_)))) 0.0))))
(assert
 (let ((?x1548 (- (- (+ (* _a_3_ l_1_2_13) (* _a_3_ l_1_2_6)) l_1_2_2) (* (* l_1_2_9 _a_3_) _a_3_))))
 (= ?x1548 0.0)))
(assert
 (let ((?x1497 (* 12.0 l_1_2_2)))
 (let ((?x1560 (- (* (* (* (- 2.0) _a_1_) _a_3_) l_1_2_9) (* l_1_2_13 (+ (- _a_1_) (* 6.0 _a_3_))))))
 (= (- (+ ?x1560 ?x1497) (* l_1_2_6 (+ (- _a_1_) (* 6.0 _a_3_)))) 0.0))))
(assert
 (let ((?x174 (* _a_0_ l_1_2_6)))
 (let ((?x744 (* _a_0_ l_1_2_13)))
 (= (+ (+ (* (* (* (- 2.0) _a_0_) _a_2_) l_1_2_9) ?x744) ?x174) 0.0))))
(assert
 (let ((?x174 (* _a_0_ l_1_2_6)))
 (let ((?x744 (* _a_0_ l_1_2_13)))
 (= (+ (+ (* (* (* (- 2.0) _a_0_) _a_3_) l_1_2_9) ?x744) ?x174) 0.0))))
(assert
 (>= l_1_2_1 0.0))
(assert
 (>= l_1_2_2 0.0))
(assert
 (>= l_1_2_3 0.0))
(assert
 (>= l_1_2_4 0.0))
(assert
 (>= l_1_2_5 0.0))
(assert
 (>= l_1_2_6 0.0))
(assert
 (>= l_1_2_7 0.0))
(assert
 (>= l_1_2_8 0.0))
(assert
 (>= l_1_2_9 0.0))
(assert
 (>= l_1_2_10 0.0))
(assert
 (>= l_1_2_11 0.0))
(assert
 (>= l_1_2_12 0.0))
(assert
 (>= l_1_2_13 0.0))
(assert
 (>= l_1_2_14 0.0))
(assert
 (>= l_1_2_15 0.0))
(assert
 (>= l_1_2_17 0.0))
(assert
 (>= l_1_2_20 0.0))
(check-sat)
(get-model)